multiobj/instances/uniform/Ter.5.2.0.40.3.in
5 2
0 1 862 105 5 
1 0 100 377 177 
862 100 0 804 728 
105 377 804 0 463 
5 177 728 463 0 
0 694 476 195 58 
694 0 186 714 871 
476 186 0 735 60 
195 714 735 0 344 
58 871 60 344 0 
0 457 393 341 372 
457 0 317 524 828 
393 317 0 714 367 
341 524 714 0 841 
372 828 367 841 0 
