multiobj/solutions/Ter.5.2.0.40.3.out
2 2
3 0 2 1 4 
1798824 2860202 
3 4 2 1 0 
2350672 2822878 
